(set-logic QF_S)
(declare-fun H () String)
(declare-fun G () String)
(declare-fun F () String)
(declare-fun E () String)
(declare-fun D () String)
(assert (= (str.++  D F "a" D F "b" G)  (str.++  "a" D E H H "baa") ))
(check-sat)
(get-model)
